g3 0 1 0	# problem d7n5R0R6d01d05
 5 5 1 0 0	# vars, constraints, objectives, ranges, eqns
 4 1	# nonlinear constraints, objectives
 0 0	# network constraints: nonlinear, linear
 5 5 5	# nonlinear vars in constraints, objectives, both
 0 0 0 1	# linear network variables; functions; arith, flags
 0 0 0 0 0	# discrete variables: binary, integer, nonlinear (b,c,o)
 25 5	# nonzeros in Jacobian, gradients
 0 0	# max name lengths: constraints, variables
 0 0 0 0 0	# common exprs: b,c,o,c1,o1
b
0 0.08 2.17
0 0.27 3
0 0.79 2.92
0 0.48 2.93
0 0.67 2.08
r
2 32.103
2 97.762
2 284.957
2 556.004
2 39.93
C0
o0
o2
o2
n2.07
v0
v1
o2
o2
n3.15
v0
v3
C1
o54
7
o2
o2
n9.63
v0
v1
o16
o2
o2
n2.09
v0
v3
o2
o2
o2
n8.31
v0
v3
v4
o16
o2
o2
o2
n9.36
v0
v4
v4
o2
o2
o2
n8.92
v1
v3
v4
o2
o2
o2
n0.58
v2
v3
v3
o2
o2
o2
n0.84
v3
v3
v4
C2
o54
14
o2
o2
n4.65
v0
v1
o16
o2
o2
n8.05
v0
v3
o2
o2
o2
n1.88
v0
v3
v4
o2
o2
o2
n7.59
v0
v4
v4
o2
o2
o2
n8.61
v1
v3
v4
o2
o2
o2
n1.88
v2
v3
v3
o2
o2
o2
n7.42
v3
v3
v4
o16
o2
o2
o2
o2
n5.72
v0
v0
v1
v2
o2
o2
o2
o2
n6.09
v0
v0
v3
v4
o2
o2
o2
o2
n9.65
v0
v1
v1
v4
o2
o2
o2
o2
n4.1
v1
v2
v2
v2
o2
o2
o2
o2
n0.97
v1
v2
v2
v3
o2
o2
o2
o2
n4.57
v1
v2
v3
v3
o2
o2
o2
o2
n3.51
v2
v2
v2
v3
C3
o54
20
o2
o2
n8.46
v0
v1
o2
o2
n4.21
v0
v3
o2
o2
o2
n8.12
v0
v3
v4
o2
o2
o2
n6.79
v0
v4
v4
o2
o2
o2
n4.38
v1
v3
v4
o2
o2
o2
n4.24
v2
v3
v3
o2
o2
o2
n0.7
v3
v3
v4
o16
o2
o2
o2
o2
n3.75
v0
v0
v1
v2
o2
o2
o2
o2
n4.85
v0
v0
v3
v4
o2
o2
o2
o2
n3.71
v0
v1
v1
v4
o2
o2
o2
o2
n9.38
v1
v2
v2
v2
o2
o2
o2
o2
n0.87
v1
v2
v2
v3
o2
o2
o2
o2
n8.69
v1
v2
v3
v3
o2
o2
o2
o2
n6.1
v2
v2
v2
v3
o2
o2
o2
o2
o2
n2.82
v0
v0
v0
v1
v1
o2
o2
o2
o2
o2
n1.38
v0
v1
v1
v3
v3
o2
o2
o2
o2
o2
n3.45
v1
v1
v1
v1
v2
o2
o2
o2
o2
o2
n6.04
v1
v1
v2
v3
v4
o16
o2
o2
o2
o2
o2
n2.32
v1
v1
v3
v3
v3
o2
o2
o2
o2
o2
n4.95
v3
v3
v3
v3
v4
C4
n0
O0 0
o54
79
o2
o2
n8.24
v0
v1
o16
o2
o2
n1.24
v0
v3
o16
o2
o2
o2
n1.58
v0
v3
v4
o2
o2
o2
n3.38
v0
v4
v4
o16
o2
o2
o2
n3.25
v1
v3
v4
o16
o2
o2
o2
n8.62
v2
v3
v3
o2
o2
o2
n1.13
v3
v3
v4
o2
o2
o2
o2
n0.83
v0
v0
v1
v2
o2
o2
o2
o2
n8.57
v0
v0
v3
v4
o2
o2
o2
o2
n7.34
v0
v1
v1
v4
o2
o2
o2
o2
n5.35
v1
v2
v2
v2
o2
o2
o2
o2
n9.74
v1
v2
v2
v3
o16
o2
o2
o2
o2
n7.16
v1
v2
v3
v3
o2
o2
o2
o2
n1.46
v2
v2
v2
v3
o2
o2
o2
o2
o2
n6.34
v0
v0
v0
v1
v1
o2
o2
o2
o2
o2
n7.48
v0
v1
v1
v3
v3
o2
o2
o2
o2
o2
n1.89
v1
v1
v1
v1
v2
o2
o2
o2
o2
o2
n6.48
v1
v1
v2
v3
v4
o2
o2
o2
o2
o2
n1.39
v1
v1
v3
v3
v3
o2
o2
o2
o2
o2
n0.79
v3
v3
v3
v3
v4
o2
o2
o2
o2
o2
o2
n2.71
v0
v0
v0
v0
v2
v2
o2
o2
o2
o2
o2
o2
n4.34
v0
v0
v0
v1
v4
v4
o2
o2
o2
o2
o2
o2
n8.37
v0
v0
v0
v2
v3
v3
o2
o2
o2
o2
o2
o2
n4.01
v0
v0
v0
v2
v3
v4
o16
o2
o2
o2
o2
o2
o2
n0.19
v0
v0
v0
v2
v4
v4
o2
o2
o2
o2
o2
o2
n4.71
v0
v0
v0
v3
v3
v4
o2
o2
o2
o2
o2
o2
n7.32
v0
v0
v1
v1
v3
v4
o2
o2
o2
o2
o2
o2
n3.43
v0
v0
v1
v3
v3
v3
o2
o2
o2
o2
o2
o2
n5.17
v0
v1
v1
v1
v2
v2
o2
o2
o2
o2
o2
o2
n2.57
v0
v1
v2
v3
v3
v3
o2
o2
o2
o2
o2
o2
n8.28
v0
v2
v2
v2
v3
v4
o2
o2
o2
o2
o2
o2
n8
v0
v2
v3
v3
v3
v4
o2
o2
o2
o2
o2
o2
n4.79
v0
v2
v3
v4
v4
v4
o2
o2
o2
o2
o2
o2
n1.95
v0
v3
v4
v4
v4
v4
o2
o2
o2
o2
o2
o2
n5.41
v1
v1
v1
v1
v1
v2
o2
o2
o2
o2
o2
o2
n6.22
v1
v1
v1
v1
v2
v3
o2
o2
o2
o2
o2
o2
n4.7
v1
v1
v4
v4
v4
v4
o2
o2
o2
o2
o2
o2
n5.97
v1
v2
v3
v3
v3
v4
o2
o2
o2
o2
o2
o2
n7.37
v1
v2
v3
v3
v4
v4
o2
o2
o2
o2
o2
o2
n9.31
v2
v2
v4
v4
v4
v4
o2
o2
o2
o2
o2
o2
n7.55
v2
v3
v3
v3
v3
v3
o2
o2
o2
o2
o2
o2
n3.18
v3
v3
v3
v4
v4
v4
o2
o2
o2
o2
o2
o2
n3.83
v4
v4
v4
v4
v4
v4
o2
o2
o2
o2
o2
o2
o2
n0.64
v0
v0
v0
v0
v0
v2
v2
o2
o2
o2
o2
o2
o2
o2
n7.7
v0
v0
v0
v0
v2
v4
v4
o2
o2
o2
o2
o2
o2
o2
n0.05
v0
v0
v0
v2
v2
v3
v3
o16
o2
o2
o2
o2
o2
o2
o2
n8.44
v0
v0
v0
v2
v3
v3
v4
o2
o2
o2
o2
o2
o2
o2
n1.35
v0
v0
v0
v2
v4
v4
v4
o2
o2
o2
o2
o2
o2
o2
n2.18
v0
v0
v0
v3
v3
v3
v4
o2
o2
o2
o2
o2
o2
o2
n9.77
v0
v0
v1
v1
v1
v3
v4
o2
o2
o2
o2
o2
o2
o2
n7.85
v0
v0
v1
v1
v3
v3
v4
o2
o2
o2
o2
o2
o2
o2
n2.31
v0
v0
v1
v1
v3
v4
v4
o2
o2
o2
o2
o2
o2
o2
n7.97
v0
v0
v1
v2
v2
v2
v4
o2
o2
o2
o2
o2
o2
o2
n7.3
v0
v0
v2
v2
v2
v2
v3
o2
o2
o2
o2
o2
o2
o2
n7.07
v0
v0
v2
v2
v3
v4
v4
o2
o2
o2
o2
o2
o2
o2
n2.28
v0
v1
v1
v1
v2
v3
v4
o2
o2
o2
o2
o2
o2
o2
n5.43
v0
v1
v1
v1
v3
v3
v4
o2
o2
o2
o2
o2
o2
o2
n0.65
v0
v1
v2
v2
v2
v3
v3
o16
o2
o2
o2
o2
o2
o2
o2
n1.11
v0
v1
v3
v3
v3
v3
v3
o2
o2
o2
o2
o2
o2
o2
n2.28
v0
v2
v2
v3
v4
v4
v4
o2
o2
o2
o2
o2
o2
o2
n8.03
v0
v2
v3
v3
v3
v4
v4
o2
o2
o2
o2
o2
o2
o2
n8.43
v0
v2
v3
v3
v4
v4
v4
o2
o2
o2
o2
o2
o2
o2
n2.81
v0
v3
v3
v3
v3
v4
v4
o2
o2
o2
o2
o2
o2
o2
n6.32
v0
v3
v3
v3
v4
v4
v4
o2
o2
o2
o2
o2
o2
o2
n8.37
v1
v1
v1
v1
v1
v3
v4
o2
o2
o2
o2
o2
o2
o2
n3.63
v1
v1
v1
v1
v1
v4
v4
o2
o2
o2
o2
o2
o2
o2
n6.92
v1
v1
v1
v1
v2
v2
v2
o2
o2
o2
o2
o2
o2
o2
n8.26
v1
v1
v1
v1
v3
v3
v3
o2
o2
o2
o2
o2
o2
o2
n0.34
v1
v1
v1
v2
v3
v4
v4
o2
o2
o2
o2
o2
o2
o2
n3.65
v1
v1
v1
v3
v3
v4
v4
o2
o2
o2
o2
o2
o2
o2
n0.49
v1
v1
v3
v3
v4
v4
v4
o2
o2
o2
o2
o2
o2
o2
n4.99
v1
v2
v2
v2
v2
v4
v4
o2
o2
o2
o2
o2
o2
o2
n7.64
v1
v2
v2
v3
v3
v3
v4
o2
o2
o2
o2
o2
o2
o2
n6.6
v1
v2
v2
v3
v4
v4
v4
o2
o2
o2
o2
o2
o2
o2
n9.44
v1
v3
v3
v4
v4
v4
v4
o2
o2
o2
o2
o2
o2
o2
n5.85
v1
v3
v4
v4
v4
v4
v4
o2
o2
o2
o2
o2
o2
o2
n8.52
v2
v2
v2
v2
v2
v4
v4
o2
o2
o2
o2
o2
o2
o2
n3.85
v2
v2
v2
v2
v3
v4
v4
o2
o2
o2
o2
o2
o2
o2
n1.43
v3
v4
v4
v4
v4
v4
v4
k4
5
10
15
20
J0 5
0 -8.67
1 1.92
2 4.7
3 6.1
4 7.09
J1 5
0 5.39
1 0.57
2 3.97
3 8.4
4 9.23
J2 5
0 0.83
1 5.73
2 9.65
3 0.63
4 1.5
J3 5
0 4.37
1 1.35
2 -0.29
3 6.87
4 4.11
J4 5
0 -8.3
1 6.71
2 8.8
3 4.96
4 9.83
G0 5
0 5.22
1 9.45
2 3.72
3 0.71
4 7.53
